objective value:                      1.0811151146186
x(0,1,1)                                            1 	(obj:0)
x(1,13,1)                                           1 	(obj:0)
x(2,8,0)                                            1 	(obj:0)
x(3,0,1)                                            1 	(obj:0)
x(3,12,0)                                           1 	(obj:0)
x(4,7,2)                                            1 	(obj:0)
x(6,3,0)                                            1 	(obj:0)
x(7,14,2)                                           1 	(obj:0)
x(8,6,0)                                            1 	(obj:0)
x(12,2,0)                                           1 	(obj:0)
x(13,3,1)                                           1 	(obj:0)
x(14,4,2)                                           1 	(obj:0)
xc(0,9)                                             1 	(obj:0)
xc(1,0)                                             1 	(obj:0)
xc(3,1)                                             1 	(obj:0)
xc(3,8)                                             1 	(obj:0)
xc(6,13)                                            1 	(obj:0)
xc(7,6)                                             1 	(obj:0)
u(0,1)                                0.2622978886364 	(obj:0)
u(0,2)                                1.0811151146186 	(obj:0)
u(1,1)                              0.343374019968302 	(obj:0)
u(1,2)                                1.0811151146186 	(obj:0)
u(2,1)                                1.0811151146186 	(obj:0)
u(3,0)                              0.802105808374801 	(obj:0)
u(3,2)                                1.0811151146186 	(obj:0)
u(5,1)                                1.0811151146186 	(obj:0)
u(6,0)                              0.507087927045001 	(obj:0)
u(7,0)                                1.0811151146186 	(obj:0)
u(7,2)                                0.5405575573093 	(obj:0)
u(8,0)                             0.0832804247423997 	(obj:0)
u(9,0)                                1.0811151146186 	(obj:0)
u(10,0)                               1.0811151146186 	(obj:0)
u(10,1)                               1.0811151146186 	(obj:0)
u(10,2)                               1.0811151146186 	(obj:0)
u(11,0)                               1.0811151146186 	(obj:0)
u(11,1)                               1.0811151146186 	(obj:0)
u(11,2)                               1.0811151146186 	(obj:0)
u(12,0)                               1.0811151146186 	(obj:0)
u(12,1)                               1.0811151146186 	(obj:0)
u(12,2)                               1.0811151146186 	(obj:0)
u(13,0)                               1.0811151146186 	(obj:0)
u(13,1)                               1.0811151146186 	(obj:0)
u(13,2)                               1.0811151146186 	(obj:0)
u(14,0)                               1.0811151146186 	(obj:0)
u(14,1)                               1.0811151146186 	(obj:0)
u(14,2)                               1.0811151146186 	(obj:0)
u(15,0)                               1.0811151146186 	(obj:0)
u(15,1)                               1.0811151146186 	(obj:0)
u(15,2)                               1.0811151146186 	(obj:0)
u(16,0)                               1.0811151146186 	(obj:0)
u(16,1)                               1.0811151146186 	(obj:0)
u(16,2)                               1.0811151146186 	(obj:0)
u(17,0)                               1.0811151146186 	(obj:0)
u(17,1)                               1.0811151146186 	(obj:0)
u(17,2)                               1.0811151146186 	(obj:0)
u(18,0)                               1.0811151146186 	(obj:0)
u(18,1)                               1.0811151146186 	(obj:0)
u(18,2)                               1.0811151146186 	(obj:0)
u(19,0)                               1.0811151146186 	(obj:0)
u(19,1)                               1.0811151146186 	(obj:0)
u(19,2)                               1.0811151146186 	(obj:0)
f(0,9,0)                                            1 	(obj:0)
f(0,9,1)                                            1 	(obj:0)
f(0,9,2)                                            1 	(obj:0)
f(0,9,3)                                            1 	(obj:0)
f(0,9,4)                                            1 	(obj:0)
f(1,0,2)                                            1 	(obj:0)
f(1,0,3)                                            1 	(obj:0)
f(1,13,1)                                           1 	(obj:0)
f(2,8,2)                                            1 	(obj:0)
f(2,8,4)                                            1 	(obj:0)
f(3,0,1)                                            1 	(obj:0)
f(3,0,4)                                            1 	(obj:0)
f(3,1,2)                                            1 	(obj:0)
f(3,1,3)                                            1 	(obj:0)
f(3,8,3)                                            1 	(obj:0)
f(3,12,4)                                           1 	(obj:0)
f(4,7,2)                                            1 	(obj:0)
f(4,7,4)                                            1 	(obj:0)
f(6,3,2)                                            1 	(obj:0)
f(6,3,4)                                            1 	(obj:0)
f(6,13,3)                                           1 	(obj:0)
f(6,13,4)                                           1 	(obj:0)
f(7,6,4)                                            1 	(obj:0)
f(7,14,2)                                           1 	(obj:0)
f(8,6,2)                                            1 	(obj:0)
f(8,6,3)                                            1 	(obj:0)
f(8,6,4)                                            1 	(obj:0)
f(12,2,4)                                           1 	(obj:0)
f(13,3,1)                                           1 	(obj:0)
f(13,3,3)                                           1 	(obj:0)
f(13,3,4)                                           1 	(obj:0)
f(14,4,2)                                           1 	(obj:0)
z_r(0,)                               1.0811151146186 	(obj:0)
z_r(1,)                               1.0811151146186 	(obj:0)
z_r(2,)                               1.0811151146186 	(obj:0)
z                                     1.0811151146186 	(obj:1)
